NAME : mEgtspf.pid11418.gtsp.238592050.tour
COMMENT : Length = 238592050
COMMENT : Found by LKH [Keld Helsgaun] Sat Mar  8 22:25:50 2025
TYPE : TOUR
DIMENSION : 135
TOUR_SECTION
1
128
129
130
131
95
92
93
94
124
125
126
127
7
37
38
39
36
45
46
47
44
9
60
61
62
63
119
116
117
118
5
132
133
134
135
15
17
18
19
16
3
53
54
55
52
12
2
43
40
41
42
67
64
65
66
11
115
112
113
114
91
88
89
90
97
98
99
96
21
22
23
20
58
59
56
57
102
103
100
101
10
51
48
49
50
106
107
104
105
75
72
73
74
14
86
87
84
85
82
83
80
81
13
120
121
122
123
35
32
33
34
6
77
78
79
76
68
69
70
71
27
24
25
26
111
108
109
110
31
28
29
30
4
8
-1
EOF
